
Gurobi 10.0.1 (linux64) logging started Mon 14 Aug 2023 01:41:18 AM CDT

Set parameter LogFile to value "/home/dlcole3/graph_abstraction/plasmoexamples/SHP_serial/SHP_reserve_requirements/gurobi_logs/logfile23.log"
Set parameter NodefileStart to value 0.0005
Set parameter TimeLimit to value 36000
Gurobi Optimizer version 10.0.1 build v10.0.1rc0 (linux64)

CPU model: Intel(R) Xeon(R) CPU E5-2698 v4 @ 2.20GHz, instruction set [SSE2|AVX|AVX2]
Thread count: 40 physical cores, 80 logical processors, using up to 8 threads


Warning: excessive time spent in model updates.
Consider calling update less frequently.

Optimize a model with 1105538 rows, 641709 columns and 4644125 nonzeros
Model fingerprint: 0x38a70881
Variable types: 599982 continuous, 41727 integer (41727 binary)
Coefficient statistics:
  Matrix range     [5e-02, 2e+04]
  Objective range  [2e-01, 8e+04]
  Bounds range     [5e-02, 2e+04]
  RHS range        [1e-05, 7e+03]
Presolve removed 269264 rows and 115682 columns (presolve time = 5s) ...
Presolve removed 276980 rows and 116502 columns (presolve time = 10s) ...
Presolve removed 278953 rows and 119513 columns (presolve time = 15s) ...
Presolve removed 287701 rows and 124052 columns (presolve time = 20s) ...
Presolve removed 292233 rows and 124949 columns (presolve time = 25s) ...
Presolve removed 292253 rows and 124969 columns (presolve time = 30s) ...
Presolve removed 292283 rows and 124999 columns (presolve time = 35s) ...
Presolve removed 292583 rows and 125019 columns (presolve time = 40s) ...
Sparsify removed 202010 nonzeros (5%)
Presolve removed 292583 rows and 123061 columns
Presolve time: 44.54s
Presolved: 812955 rows, 518648 columns, 3978951 nonzeros
Variable types: 484927 continuous, 33721 integer (33655 binary)

Deterministic concurrent LP optimizer: primal simplex, dual simplex, and barrier
Showing barrier log only...

Root barrier log...

Elapsed ordering time = 5s
Elapsed ordering time = 17s
Elapsed ordering time = 20s
Elapsed ordering time = 25s
Elapsed ordering time = 33s
Elapsed ordering time = 36s
Elapsed ordering time = 40s
Elapsed ordering time = 46s
Elapsed ordering time = 50s
Elapsed ordering time = 55s
Elapsed ordering time = 60s
Elapsed ordering time = 61s
Elapsed ordering time = 65s
Elapsed ordering time = 70s
Ordering time: 71.95s

Barrier statistics:
 Dense cols : 211
 AA' NZ     : 2.398e+07
 Factor NZ  : 3.563e+08 (roughly 3.4 GB of memory)
 Factor Ops : 1.592e+12 (roughly 13 seconds per iteration)
 Threads    : 5

                  Objective                Residual
Iter       Primal          Dual         Primal    Dual     Compl     Time
   0  -2.23097448e+11 -1.80474579e+13  1.22e+04 8.45e+03  1.15e+08   139s
   1  -1.54532464e+11 -1.33154440e+13  8.62e+03 8.82e+05  7.21e+07   146s
   2  -1.08839048e+11 -8.32637441e+12  6.18e+03 1.83e+04  4.60e+07   160s
   3  -3.08359282e+10 -3.62681111e+12  1.94e+03 1.17e+00  1.39e+07   173s
   4  -8.08262785e+09 -1.83636021e+12  7.21e+02 2.76e-01  5.06e+06   187s
   5   3.38014090e+09 -8.89846888e+11  1.33e+02 1.04e-01  1.17e+06   203s
   6   4.85617344e+09 -3.15484825e+11  6.31e+01 1.03e-02  3.97e+05   218s
   7   5.30288235e+09 -1.51663172e+11  1.46e+01 8.21e-03  1.27e+05   234s
   8   4.11956774e+09 -4.98941955e+10  4.84e+00 6.32e-04  3.78e+04   251s
   9   1.87559044e+09 -1.77531348e+10  1.72e+00 9.68e-04  1.26e+04   267s
  10   6.12004838e+08 -6.52038490e+09  5.07e-01 4.65e-04  4.34e+03   281s
  11   9.15740319e+07 -4.52468855e+08  2.72e-04 7.18e-05  3.17e+02   299s
  12   7.22704619e+07 -7.22118544e+07  4.89e-05 8.02e-05  8.41e+01   319s
  13   6.12927201e+07  1.64377112e+07  1.70e-05 1.06e-05  2.61e+01   339s
  14   5.24418240e+07  3.30300908e+07  3.71e-06 7.57e-06  1.13e+01   361s
  15   4.96327140e+07  4.06579837e+07  1.58e-06 4.47e-06  5.22e+00   377s
  16   4.79889795e+07  4.43836685e+07  6.98e-07 1.32e-05  2.10e+00   398s
  17   4.74499116e+07  4.55729464e+07  5.49e-07 6.03e-06  1.09e+00   416s
  18   4.71745898e+07  4.59011670e+07  4.24e-07 3.79e-06  7.41e-01   433s
  19   4.69365399e+07  4.60817321e+07  2.97e-07 2.44e-06  4.98e-01   449s
  20   4.68150549e+07  4.62256131e+07  2.63e-07 1.48e-06  3.43e-01   466s
  21   4.66824455e+07  4.63263068e+07  1.87e-07 9.20e-07  2.07e-01   483s
  22   4.66061928e+07  4.63691060e+07  1.41e-07 5.22e-07  1.38e-01   498s
  23   4.65572402e+07  4.63887693e+07  1.07e-07 3.54e-07  9.81e-02   513s
  24   4.65065370e+07  4.63945880e+07  1.77e-07 2.89e-07  6.52e-02   528s
  25   4.64946834e+07  4.64021015e+07  2.57e-07 2.19e-07  5.39e-02   545s
  26   4.64878221e+07  4.64107807e+07  3.39e-07 1.37e-07  4.48e-02   564s
  27   4.64642557e+07  4.64133766e+07  7.96e-07 1.06e-07  2.96e-02   586s
  28   4.64501673e+07  4.64158333e+07  2.08e-06 8.26e-08  2.00e-02   608s
  29   4.64458864e+07  4.64201025e+07  2.55e-06 6.40e-08  1.50e-02   629s
  30   4.64411124e+07  4.64216099e+07  2.70e-06 2.96e-08  1.14e-02   651s
  31   4.64368615e+07  4.64224004e+07  2.52e-06 2.27e-08  8.42e-03   673s
  32   4.64342729e+07  4.64229983e+07  2.20e-06 4.67e-08  6.56e-03   695s
  33   4.64315128e+07  4.64238673e+07  1.75e-06 1.15e-08  4.45e-03   716s
  34   4.64298183e+07  4.64242559e+07  1.74e-06 1.66e-08  3.24e-03   738s
  35   4.64285311e+07  4.64246058e+07  1.30e-06 2.03e-08  2.28e-03   760s
  36   4.64273352e+07  4.64247834e+07  8.18e-07 9.92e-09  1.49e-03   782s
  37   4.64268033e+07  4.64249156e+07  5.80e-07 8.66e-09  1.10e-03   801s
  38   4.64262222e+07  4.64249944e+07  3.67e-07 1.25e-08  7.15e-04   821s
  39   4.64259357e+07  4.64251755e+07  2.52e-07 4.17e-08  4.43e-04   841s
  40   4.64257366e+07  4.64252057e+07  2.81e-07 2.12e-08  3.09e-04   861s
  41   4.64255803e+07  4.64252260e+07  2.22e-07 3.29e-08  2.06e-04   880s
  42   4.64255352e+07  4.64252524e+07  1.93e-07 1.17e-08  1.65e-04   897s
  43   4.64254590e+07  4.64252732e+07  1.42e-07 3.62e-08  1.08e-04   914s
  44   4.64253985e+07  4.64252822e+07  1.62e-07 4.11e-08  6.77e-05   933s
  45   4.64253879e+07  4.64252855e+07  1.42e-07 1.28e-08  5.96e-05   950s
  46   4.64253485e+07  4.64252890e+07  7.70e-08 1.02e-08  3.47e-05   967s

Barrier solved model in 46 iterations and 967.37 seconds (914.90 work units)
Optimal objective 4.64253485e+07


Root crossover log...

  357230 DPushes remaining with DInf 5.0608230e-02               969s
  153209 DPushes remaining with DInf 9.8018146e+03               972s
  104964 DPushes remaining with DInf 0.0000000e+00               976s
   85192 DPushes remaining with DInf 0.0000000e+00               980s
   66378 DPushes remaining with DInf 0.0000000e+00               985s
   53865 DPushes remaining with DInf 0.0000000e+00               990s
   41788 DPushes remaining with DInf 0.0000000e+00               995s
   31654 DPushes remaining with DInf 0.0000000e+00              1001s
   25098 DPushes remaining with DInf 0.0000000e+00              1006s
   22970 DPushes remaining with DInf 0.0000000e+00              1011s
   20060 DPushes remaining with DInf 0.0000000e+00              1015s
   16908 DPushes remaining with DInf 0.0000000e+00              1021s
   14120 DPushes remaining with DInf 0.0000000e+00              1025s
   10460 DPushes remaining with DInf 0.0000000e+00              1031s
    7676 DPushes remaining with DInf 0.0000000e+00              1036s
    6762 DPushes remaining with DInf 0.0000000e+00              1040s
    4797 DPushes remaining with DInf 0.0000000e+00              1045s
    2877 DPushes remaining with DInf 0.0000000e+00              1051s
    1493 DPushes remaining with DInf 0.0000000e+00              1056s
       0 DPushes remaining with DInf 0.0000000e+00              1060s

  268284 PPushes remaining with PInf 7.1001547e-02              1060s
   52883 PPushes remaining with PInf 4.2861267e-01              1076s
   22820 PPushes remaining with PInf 4.0974265e-01              1080s
   11991 PPushes remaining with PInf 3.5382449e-01              1085s
    9314 PPushes remaining with PInf 3.2782324e-01              1090s
     939 PPushes remaining with PInf 3.5960300e-01              1099s
       0 PPushes remaining with PInf 6.3752707e-01              1102s

  Push phase complete: Pinf 6.3752707e-01, Dinf 1.5499507e+07   1102s


Root simplex log...

Iteration    Objective       Primal Inf.    Dual Inf.      Time
  431481    4.6425299e+07   0.000000e+00   1.549951e+07   1103s
  431938    4.6425298e+07   0.000000e+00   5.270820e+04   1106s
  433309    4.6425298e+07   0.000000e+00   2.998043e-01   1111s
  433514    4.6425298e+07   0.000000e+00   0.000000e+00   1115s
  433514    4.6425298e+07   0.000000e+00   0.000000e+00   1116s
Waiting for other threads to finish...        1183s
Concurrent spin time: 84.66s

Solved with barrier

Root relaxation: objective 4.642530e+07, 433514 iterations, 1151.59 seconds (1061.37 work units)

    Nodes    |    Current Node    |     Objective Bounds      |     Work
 Expl Unexpl |  Obj  Depth IntInf | Incumbent    BestBd   Gap | It/Node Time

     0     0 4.6425e+07    0  867          - 4.6425e+07      -     - 1228s
     0     0 4.6431e+07    0  638          - 4.6431e+07      -     - 1338s
     0     0 4.6431e+07    0  637          - 4.6431e+07      -     - 1339s
H    0     0                    1.116647e+10 4.6431e+07   100%     - 1356s
     0     0 4.6432e+07    0  635 1.1166e+10 4.6432e+07   100%     - 1364s
H    0     0                    1.116647e+10 4.6432e+07   100%     - 1390s
     0     0 4.6432e+07    0  769 1.1166e+10 4.6432e+07   100%     - 2574s
H    0     0                    9.766836e+09 4.6432e+07   100%     - 2729s
     0     0 4.6433e+07    0  554 9.7668e+09 4.6433e+07   100%     - 2788s
     0     0 4.6433e+07    0  553 9.7668e+09 4.6433e+07   100%     - 2790s
     0     0 4.6434e+07    0  573 9.7668e+09 4.6434e+07   100%     - 2840s
     0     0 4.6434e+07    0  575 9.7668e+09 4.6434e+07   100%     - 2846s
     0     0 4.6434e+07    0  575 9.7668e+09 4.6434e+07   100%     - 2850s
     0     0 4.6434e+07    0  579 9.7668e+09 4.6434e+07   100%     - 2853s
     0     0 4.6436e+07    0  570 9.7668e+09 4.6436e+07   100%     - 2892s
     0     0 4.6436e+07    0  568 9.7668e+09 4.6436e+07   100%     - 2895s
     0     0 4.6436e+07    0  580 9.7668e+09 4.6436e+07   100%     - 2939s
     0     0 4.6436e+07    0  567 9.7668e+09 4.6436e+07   100%     - 2943s
     0     0 4.6436e+07    0  564 9.7668e+09 4.6436e+07   100%     - 2946s
     0     0 4.6437e+07    0  611 9.7668e+09 4.6437e+07   100%     - 3006s
     0     0 4.6437e+07    0  609 9.7668e+09 4.6437e+07   100%     - 3008s
     0     0 4.6437e+07    0  598 9.7668e+09 4.6437e+07   100%     - 3074s
     0     0 4.6437e+07    0  598 9.7668e+09 4.6437e+07   100%     - 3077s
     0     0 4.6438e+07    0  566 9.7668e+09 4.6438e+07   100%     - 3134s
     0     0 4.6438e+07    0  536 9.7668e+09 4.6438e+07   100%     - 3175s
     0     0 4.6438e+07    0  538 9.7668e+09 4.6438e+07   100%     - 3178s
     0     0 4.6438e+07    0  504 9.7668e+09 4.6438e+07   100%     - 3210s
     0     0 4.6439e+07    0  505 9.7668e+09 4.6439e+07   100%     - 3273s
     0     0 4.6439e+07    0  501 9.7668e+09 4.6439e+07   100%     - 3279s
     0     0 4.6439e+07    0  503 9.7668e+09 4.6439e+07   100%     - 3310s
     0     0 4.6439e+07    0  496 9.7668e+09 4.6439e+07   100%     - 3337s
     0     0 4.6439e+07    0  494 9.7668e+09 4.6439e+07   100%     - 3340s
     0     0 4.6439e+07    0  448 9.7668e+09 4.6439e+07   100%     - 3375s
     0     0 4.6439e+07    0  448 9.7668e+09 4.6439e+07   100%     - 3415s
     0     0 4.6439e+07    0  448 9.7668e+09 4.6439e+07   100%     - 3419s
     0     0 4.6439e+07    0  447 9.7668e+09 4.6439e+07   100%     - 3446s
     0     0 4.6440e+07    0  448 9.7668e+09 4.6440e+07   100%     - 3486s
     0     0 4.6440e+07    0  448 9.7668e+09 4.6440e+07   100%     - 3490s
     0     0 4.6440e+07    0  448 9.7668e+09 4.6440e+07   100%     - 3523s
     0     0 4.6440e+07    0  439 9.7668e+09 4.6440e+07   100%     - 3571s
     0     0 4.6440e+07    0  439 9.7668e+09 4.6440e+07   100%     - 3574s
     0     0 4.6440e+07    0  433 9.7668e+09 4.6440e+07   100%     - 3602s
     0     0 4.6440e+07    0  433 9.7668e+09 4.6440e+07   100%     - 3632s
     0     0 4.6440e+07    0  433 9.7668e+09 4.6440e+07   100%     - 3637s
     0     0 4.6440e+07    0  434 9.7668e+09 4.6440e+07   100%     - 3665s
     0     0 4.6440e+07    0  434 9.7668e+09 4.6440e+07   100%     - 3706s
     0     0 4.6440e+07    0  440 9.7668e+09 4.6440e+07   100%     - 3734s
     0     0 4.6440e+07    0  434 9.7668e+09 4.6440e+07   100%     - 3768s
     0     0 4.6440e+07    0  438 9.7668e+09 4.6440e+07   100%     - 3795s
     0     0 4.6440e+07    0  438 9.7668e+09 4.6440e+07   100%     - 3809s
     0     0 4.6440e+07    0  442 9.7668e+09 4.6440e+07   100%     - 3835s
     0     0 4.6440e+07    0  442 9.7668e+09 4.6440e+07   100%     - 3855s
     0     0 4.6440e+07    0  442 9.7668e+09 4.6440e+07   100%     - 3882s
     0     0 4.6440e+07    0  442 9.7668e+09 4.6440e+07   100%     - 3892s
     0     2 4.6440e+07    0  442 9.7668e+09 4.6440e+07   100%     - 3932s
     1     4 4.6516e+07    1  535 9.7668e+09 4.6440e+07   100% 18902 4034s
     3     8 4.6961e+07    2  520 9.7668e+09 4.6450e+07   100% 20396 4168s
     7    16 4.6972e+07    3  544 9.7668e+09 4.6462e+07   100% 13788 4288s
    15    22 4.6974e+07    4  525 9.7668e+09 4.6465e+07   100% 11443 4310s
    23    30 4.6974e+07    4  517 9.7668e+09 4.6465e+07   100%  8238 4376s
    31    37 4.6975e+07    5  525 9.7668e+09 4.6466e+07   100%  7349 9873s
H   32    37                    9.764865e+09 4.6466e+07   100%  7120 9873s
H   33    37                    9.763407e+09 4.6466e+07   100%  6909 9873s
    39    44 4.6975e+07    6  515 9.7634e+09 4.6466e+07   100%  5903 9905s
    47    51 4.6976e+07    7  475 9.7634e+09 4.6466e+07   100%  4956 9942s
    59    56 4.6976e+07    7  474 9.7634e+09 4.6466e+07   100%  4038 10019s
    68    64 4.6985e+07    8  508 9.7634e+09 4.6466e+07   100%  3658 10072s
    80    74 4.6985e+07    9  507 9.7634e+09 4.6466e+07   100%  3172 10773s
    93    81 4.7018e+07   11  516 9.7634e+09 4.6466e+07   100%  2797 10816s
   113    88 4.7026e+07   13  515 9.7634e+09 4.6466e+07   100%  2396 10856s
   129    96 4.7033e+07   15  507 9.7634e+09 4.6466e+07   100%  2129 10907s
   148   101 4.7047e+07   17  435 9.7634e+09 4.6466e+07   100%  1916 10958s
   171   104 4.7056e+07   19  443 9.7634e+09 4.6466e+07   100%  1702 11025s
   187   109 4.7068e+07   20  483 9.7634e+09 4.6466e+07   100%  1590 11071s
   210   115 4.7081e+07   23  425 9.7634e+09 4.6466e+07   100%  1453 11125s
   230   127 4.7084e+07   26  420 9.7634e+09 4.6466e+07   100%  1366 11168s
   259   131 4.7088e+07   29  411 9.7634e+09 4.6466e+07   100%  1228 11222s
   284   137 4.7091e+07   31  400 9.7634e+09 4.6466e+07   100%  1140 11281s
H  317   143                    6.770306e+08 4.6466e+07  93.1%  1034 11356s
   345   154 4.7112e+07   35  402 6.7703e+08 4.6466e+07  93.1%   968 11414s
   390   155 4.7134e+07   39  322 6.7703e+08 4.6466e+07  93.1%   871 12253s
H  394   155                    4.651798e+07 4.6466e+07  0.11%   863 12254s

Cutting planes:
  Learned: 1
  Gomory: 99
  Implied bound: 391
  MIR: 254
  Flow cover: 1224
  RLT: 87
  Relax-and-lift: 36

Explored 398 nodes (1249971 simplex iterations) in 12254.23 seconds (19098.16 work units)
Thread count was 8 (of 80 available processors)

Solution count 7: 4.6518e+07 4.6518e+07 6.77031e+08 ... 1.11665e+10

Optimal solution found (tolerance 5.00e-02)
Best objective 4.651797679638e+07, best bound 4.646559615341e+07, gap 0.1126%

User-callback calls 6238669, time in user-callback 25.14 sec
